p cnf 2605 2440
c ind 1096 1097 1098 1099 1100 1101 1102 1103 1104 1105 0
c ind 1106 1107 1108 1109 1110 1111 1112 1113 1114 1115 0
c ind 1116 1117 1118 1119 1287 1288 1289 1290 1291 1292 0
c ind 1293 1294 1295 1296 1297 1298 1299 1300 1301 1302 0
c ind 1303 1304 1305 1306 1307 1308 1309 1310 1311 1312 0
c ind 1313 1314 1315 1316 1044 1317 1318 1167 1282 1283 0
c ind 1284 1285 1286 1022 1023 1024 1319 1025 1320 1026 0
c ind 1027 1028 1321 1029 1322 1030 1031 1032 1033 1034 0
c ind 1035 1036 1323 1037 1038 1039 1324 1325 1040 1041 0
c ind 1326 1327 1042 1043 1120 1121 1122 1123 1124 1328 0
c ind 1125 1126 1127 1128 1045 1129 1329 1330 1130 1131 0
c ind 1132 1133 1331 1332 1134 1135 1136 1137 1138 1139 0
c ind 1140 1141 1142 1143 1333 1334 1144 1145 1146 1335 0
c ind 1336 1147 1148 1149 1150 1151 1152 1153 1154 1337 0
c ind 1155 1156 1157 1158 1159 1160 1338 1161 1339 1162 0
c ind 1340 1163 1341 1492 1493 1494 1495 1496 1497 1046 0
c ind 1498 1342 1343 1499 1500 1344 1501 1502 1503 1504 0
c ind 1505 1506 1507 1508 1509 1510 1511 1345 1512 1513 0
c ind 1514 1515 1516 1517 1346 1518 1347 1519 1348 1520 0
c ind 1349 1521 1522 1523 1524 1525 1526 1527 1528 1529 0
c ind 1530 1531 1532 1533 1534 1535 1536 1537 1164 1538 0
c ind 1539 1540 1541 1542 1543 1366 1367 1368 1369 1370 0
c ind 1371 1372 1373 1374 1375 1376 1377 1378 1379 1380 0
c ind 1381 1382 1383 1384 1385 1386 1387 1388 1389 1390 0
c ind 1391 1392 1393 1394 1395 1396 1397 1398 1399 1400 0
c ind 1401 1402 1403 1404 1405 1406 1407 1408 1409 1410 0
c ind 1411 1412 1413 1414 1415 1416 1417 1418 1419 1420 0
c ind 1421 1422 1423 1424 1425 1426 1427 1428 1429 1430 0
c ind 1165 1431 1432 1433 1434 1435 1436 1437 1438 1439 0
c ind 1440 1441 1442 1443 1444 1445 1446 1447 1448 1449 0
c ind 1450 1451 1452 1453 1454 1455 1456 1457 1458 1459 0
c ind 1460 1461 1462 1463 1464 1465 1466 1467 1468 1469 0
c ind 1166 1470 1471 1472 1473 1474 1475 1476 1477 1478 0
c ind 1479 1480 1481 1482 1483 1484 1485 1486 1487 1488 0
c ind 1489 1490 1491 1047 1048 1049 1050 1051 1052 1053 0
c ind 1054 1055 1056 1057 1058 1059 1060 1061 1062 1063 0
c ind 1064 1065 1066 1067 1068 1069 1070 1071 1072 1073 0
c ind 1074 1075 1076 1077 1078 1079 1080 1081 1082 1083 0
c ind 1084 1085 1086 1087 1088 1089 1090 1091 1092 1093 0
c ind 1094 1095 0
672 -673 781 0
672 -673 698 0
-672 673 0
-698 -781 -672 0
673 -674 -688 -697 0
-673 674 0
-673 688 0
-673 697 0
674 675 -679 0
-674 -675 0
-674 679 0
-676 -1042 675 0
-678 -1042 675 0
-677 -1042 675 0
-675 1042 0
-675 676 677 678 0
676 -1124 1125 1126 0
-676 1124 0
-676 -1126 0
-676 -1125 0
677 1124 1127 1128 0
-677 -1124 0
-677 -1128 0
-677 -1127 0
678 -1043 1120 1121 0
-678 1043 0
-678 -1121 0
-678 -1120 0
679 680 684 -1144 -1500 0
-679 1500 0
-679 -684 0
-679 1144 0
-679 -680 0
681 1145 680 1146 1147 0
-680 -681 0
-680 -1147 0
-680 -1145 0
-680 -1146 0
681 682 -1150 0
681 682 683 -1151 0
-681 -682 0
-681 -683 1150 0
-681 1150 1151 0
682 1148 -1149 0
-682 -1148 0
-682 1149 0
683 1156 1157 0
683 1156 1492 1493 0
-683 -1156 0
-683 -1157 -1492 0
-683 -1157 -1493 0
685 1501 684 1502 1503 0
-684 -685 0
-684 -1503 0
-684 -1501 0
-684 -1502 0
685 686 -1506 0
685 686 687 -1507 0
-685 -686 0
-685 -687 1506 0
-685 1506 1507 0
686 1504 -1505 0
-686 -1504 0
-686 1505 0
687 1512 1513 0
687 1512 1520 1521 0
-687 -1512 0
-687 -1513 -1520 0
-687 -1513 -1521 0
688 -691 1439 0
688 -691 1432 0
688 689 -691 0
-688 691 0
-689 -1432 -688 -1439 0
689 -690 -1440 1441 0
-689 1440 0
-689 -1441 0
-689 690 0
690 1443 -1444 -1445 1446 0
-690 -1443 0
-690 -1446 0
-690 1445 0
-690 1444 0
691 692 -695 696 0
691 692 -695 1044 0
-691 695 0
-691 -692 0
-696 -1044 -691 0
-693 -694 692 -1421 0
-693 -694 692 -1422 0
-692 694 0
-692 693 0
-692 1421 1422 0
693 1424 1425 1426 1427 0
-693 -1427 0
-693 -1426 0
-693 -1424 0
-693 -1425 0
694 -1418 -1419 -1420 1423 0
-694 1420 0
-694 -1423 0
-694 1418 0
-694 1419 0
695 -1052 -1081 -1110 -1468 0
-695 1468 0
-695 1052 0
-695 1110 0
-695 1081 0
696 1390 1391 1392 0
-696 -1390 0
-696 -1392 0
-696 -1391 0
697 -1164 -1165 0
697 -1046 1166 0
697 -1046 -1165 0
697 -1164 1166 0
1165 -1166 -697 0
1046 1164 -697 0
698 -699 -739 -773 -1269 0
698 -699 -739 773 1269 0
-698 699 0
-698 -773 1269 0
-698 739 0
-698 773 -1269 0
699 700 -718 0
-699 -700 0
-699 718 0
700 701 -1355 0
-700 1355 0
-700 -701 0
701 702 -695 0
695 -701 0
-701 -702 0
702 711 716 -1432 0
702 703 711 716 0
-702 -716 0
-702 -711 0
-702 -703 1432 0
703 709 692 0
703 -704 -674 692 0
-692 -703 0
674 -703 -709 0
-703 704 -709 0
704 707 1044 -1166 0
704 -705 707 -1166 0
-704 1166 0
-704 -707 0
-704 705 -1044 0
705 706 -1390 0
705 706 -1391 0
705 706 -1392 0
-705 -706 0
-705 1390 1391 1392 0
706 1398 -1400 0
-706 -1398 0
-706 1400 0
707 -708 -1411 0
707 -708 -1044 0
-707 708 0
-707 1044 1411 0
708 1377 -1379 0
-708 -1377 0
-708 1379 0
709 710 1316 0
706 709 710 0
709 710 1044 0
-709 -710 0
-706 -709 -1044 -1316 0
-707 710 1044 -1315 0
-705 -707 710 -1315 0
707 -710 0
-710 1315 0
705 -710 -1044 0
711 -712 -715 -1318 0
711 712 -713 -715 0
-711 715 0
-711 -712 1318 0
-711 712 713 0
712 1463 -1465 0
-712 -1463 0
-712 1465 0
713 -714 -1317 0
-703 713 714 0
-713 -714 1317 0
703 -713 714 0
714 1435 -1437 0
-714 -1435 0
-714 1437 0
715 -1432 1439 0
-715 1432 0
-715 -1439 0
-713 716 -717 0
713 -716 0
-716 717 0
689 717 -1432 -1439 0
-717 1432 0
-717 1439 0
-689 -717 0
718 -729 -1277 0
718 719 -729 0
-718 729 0
-718 -719 1277 0
719 -720 -695 0
719 728 -695 0
695 -719 0
-719 720 -728 0
712 -715 720 -721 0
-712 -715 720 -1349 0
715 -720 0
712 -720 721 0
-712 -720 1349 0
-714 721 -1348 0
714 721 -722 0
-714 -721 1348 0
714 -721 722 0
722 723 692 727 0
722 723 692 -726 0
-692 -722 0
-722 -723 0
-722 726 -727 0
723 725 1044 -1411 0
723 724 1044 1411 0
-723 -1044 0
-723 -725 -1411 0
-723 -724 1411 0
724 -1345 -674 0
-724 1345 0
674 -724 0
-708 725 -1346 0
708 -724 725 0
-708 -725 1346 0
708 724 -725 0
-705 -725 726 0
705 -726 0
725 -726 0
706 727 -1044 0
727 -1044 1347 0
-727 1044 0
-706 -727 -1347 0
721 728 -1432 0
717 722 728 0
721 722 728 0
717 728 -1432 0
-717 -721 -728 0
-722 -728 1432 0
-702 729 -730 0
729 -1355 -730 0
-729 730 0
702 -729 1355 0
730 -695 -731 0
730 -695 738 0
695 -730 0
731 -738 -730 0
712 -715 731 -732 0
-712 -715 731 -1322 0
715 -731 0
712 -731 732 0
-712 -731 1322 0
-714 732 -1321 0
714 732 -733 0
-714 -732 1321 0
714 -732 733 0
733 734 692 737 0
733 734 692 -736 0
-692 -733 0
-733 -734 0
-733 736 -737 0
734 735 1044 -1411 0
674 734 1044 1411 0
-734 -1044 0
-734 -735 -1411 0
-734 1411 -674 0
708 735 -674 0
-708 735 -1319 0
674 708 -735 0
-708 -735 1319 0
-705 -735 736 0
705 -736 0
735 -736 0
706 737 -1044 0
737 -1044 1320 0
-737 1044 0
-706 -737 -1320 0
732 738 -1432 0
717 733 738 0
732 733 738 0
717 738 -1432 0
-717 -732 -738 0
-733 -738 1432 0
739 -740 -753 -1260 0
739 740 -753 1260 0
-739 753 0
-739 740 -1260 0
-739 -740 1260 0
740 750 -695 0
740 741 -695 -744 0
695 -740 0
-740 -741 -750 0
-740 744 -750 0
741 743 1044 -1411 0
741 742 1044 1411 0
-741 -1044 0
-741 -743 -1411 0
-741 -742 1411 0
742 -1328 -674 0
-742 1328 0
674 -742 0
-708 743 -1329 0
708 -742 743 0
-708 -743 1329 0
708 742 -743 0
744 -745 749 0
-705 -743 744 -745 0
-744 745 0
705 -744 -749 0
743 -744 -749 0
745 1432 692 0
714 745 692 -746 0
-692 -745 0
-745 746 -1432 0
-714 -745 -1432 0
746 747 748 0
690 746 747 -1432 0
-746 -747 0
-746 -748 1432 0
-690 -746 -748 0
-712 747 1439 0
-747 -1439 0
712 -747 0
748 -1439 -1440 1441 0
-748 1439 0
-748 1440 0
-748 -1441 0
706 749 -1044 0
749 -1044 1330 0
-749 1044 0
-706 -749 -1330 0
712 750 751 0
715 750 751 0
750 751 1332 0
-750 -751 0
-712 -715 -750 -1332 0
-714 751 -752 -1331 0
-751 1331 0
714 -751 0
-751 752 0
-746 752 -1432 0
-752 1432 0
746 -752 0
753 -772 -754 1240 0
753 772 -754 -1240 0
-753 754 0
-753 -772 -1240 0
-753 772 1240 0
754 -755 -762 0
754 757 -760 -762 0
-754 762 0
755 -757 -754 0
755 760 -754 0
-714 755 -1432 0
755 -756 -1432 0
-755 1432 0
714 -755 756 0
-712 756 -1336 1439 0
-756 1336 0
-756 -1439 0
712 -756 0
757 759 1044 -1411 0
757 758 1044 1411 0
-757 -1044 0
-757 -759 -1411 0
-757 -758 1411 0
758 -1165 -674 0
-758 1165 0
674 -758 0
-708 759 -1333 0
708 -758 759 0
-708 -759 1333 0
708 758 -759 0
760 761 692 0
-705 -759 692 760 0
-692 -760 0
705 -760 -761 0
759 -760 -761 0
706 761 -1044 0
761 -1044 1334 0
-761 1044 0
-706 -761 -1334 0
762 -763 -765 -770 0
762 763 -767 -770 0
-762 770 0
-763 765 -762 0
763 767 -762 0
763 -1411 1533 0
763 764 1533 0
763 -1044 1533 0
-763 -1533 0
-763 -764 1044 1411 0
764 1412 1413 1414 1415 0
-764 -1415 0
-764 -1414 0
-764 -1412 0
-764 -1413 0
765 -1314 -1344 0
765 766 -1344 0
-765 1344 0
-765 -766 1314 0
766 -1306 -679 1308 0
-766 1306 0
-766 -1308 0
679 -766 0
767 769 -679 -1312 0
767 768 -679 769 0
679 -767 0
-767 -769 0
-767 -768 1312 0
768 -1306 1308 0
-768 1306 0
-768 -1308 0
-675 769 1306 0
769 1286 1306 1343 0
-769 -1306 0
-769 -1286 675 0
-769 -1343 675 0
770 1432 -688 0
-756 770 -688 0
770 -771 -688 0
688 -770 0
756 771 -770 -1432 0
-746 771 -1335 0
714 -746 771 0
746 -771 0
-714 -771 1335 0
-766 772 -688 0
688 -772 0
766 -772 0
773 779 -695 0
773 774 -695 -777 0
695 -773 0
-773 -774 -779 0
-773 777 -779 0
774 776 1044 -1411 0
774 775 1044 1411 0
-774 -1044 0
-774 -776 -1411 0
-774 -775 1411 0
775 -1337 -674 0
-775 1337 0
674 -775 0
-708 776 -1338 0
708 -775 776 0
-708 -776 1338 0
708 775 -776 0
-745 777 778 0
-705 -745 -776 777 0
745 -777 0
705 -777 -778 0
776 -777 -778 0
706 778 -1044 0
778 -1044 1339 0
-778 1044 0
-706 -778 -1339 0
712 779 780 0
715 779 780 0
779 780 1341 0
-779 -780 0
-712 -715 -779 -1341 0
-714 -752 780 -1340 0
-780 1340 0
714 -780 0
752 -780 0
781 -782 792 -1255 0
781 782 792 1255 0
-781 -792 0
-781 782 -1255 0
-781 -782 1255 0
782 -783 -695 0
782 791 -695 0
695 -782 0
-782 783 -791 0
712 -715 783 -784 0
-712 -715 783 -1327 0
715 -783 0
712 -783 784 0
-712 -783 1327 0
-714 784 -1326 0
714 784 -785 0
-714 -784 1326 0
714 -784 785 0
785 786 692 790 0
785 786 692 -789 0
-692 -785 0
-785 -786 0
-785 789 -790 0
786 788 1044 -1411 0
786 787 1044 1411 0
-786 -1044 0
-786 -788 -1411 0
-786 -787 1411 0
787 -1323 -674 0
-787 1323 0
674 -787 0
-708 788 -1324 0
708 -787 788 0
-708 -788 1324 0
708 787 -788 0
-705 -788 789 0
705 -789 0
788 -789 0
706 790 -1044 0
790 -1044 1325 0
-790 1044 0
-706 -790 -1325 0
784 791 -1432 0
717 785 791 0
784 785 791 0
717 791 -1432 0
-717 -784 -791 0
-785 -791 1432 0
719 792 -1277 0
-792 1277 0
-719 -792 0
799 -673 793 0
794 -673 793 0
673 -793 0
-793 -794 -799 0
794 -795 -796 1981 0
-782 794 -795 -796 0
-794 796 0
-794 795 0
782 -1981 -794 0
795 -754 -730 0
730 -795 0
754 -795 0
701 796 -797 -798 2081 0
-701 796 -797 -798 -2081 0
-796 798 0
701 -2081 -796 0
-796 797 0
-701 2081 -796 0
-740 797 -1986 1995 0
740 797 1986 1995 0
740 -773 797 1986 0
-740 -773 797 -1986 0
740 -1986 -797 0
-740 1986 -797 0
773 -1995 -797 0
772 773 798 -1966 0
-772 773 798 1966 0
-772 798 1966 -1995 0
772 798 -1966 -1995 0
-772 -1966 -798 0
772 1966 -798 0
-773 1995 -798 0
719 782 799 2003 0
-719 782 799 -2003 0
719 799 -1981 2003 0
-719 799 -1981 -2003 0
719 -2003 -799 0
-719 2003 -799 0
-782 1981 -799 0
-782 800 -673 0
698 800 -673 0
-792 800 -673 0
673 -800 0
-698 782 792 -800 0
-773 801 -673 0
801 802 -673 0
699 801 -673 0
673 -801 0
-699 773 -801 -802 0
-739 792 802 0
739 -802 0
-792 -802 0
-740 803 -673 0
803 805 -673 0
803 804 -673 0
673 -803 0
740 -803 -804 -805 0
-718 792 804 0
718 -804 0
-792 -804 0
700 -753 805 0
-700 -805 0
753 -805 0
-719 806 -673 0
806 807 -673 0
673 -806 0
719 -806 -807 0
-729 -805 807 0
729 -807 0
805 -807 0
808 809 -673 0
702 808 -673 0
673 -808 0
-702 -808 -809 0
-753 809 -730 0
730 -809 0
753 -809 0
795 810 -673 0
772 810 -673 0
673 -810 0
-772 -810 -795 0
795 811 -673 0
673 -811 0
-795 -811 0
782 812 -673 0
698 812 -673 0
-792 812 -673 0
673 -812 0
-698 -782 792 -812 0
802 813 -673 0
699 813 -673 0
773 813 -673 0
673 -813 0
-699 -773 -802 -813 0
805 814 -673 0
740 814 -673 0
804 814 -673 0
673 -814 0
-740 -804 -805 -814 0
807 815 -673 0
719 815 -673 0
673 -815 0
-719 -807 -815 0
-702 816 -673 0
809 816 -673 0
673 -816 0
702 -809 -816 0
-772 817 -673 0
795 817 -673 0
673 -817 0
772 -817 -795 0
1 672 0
-1 -672 0
2 672 0
-2 -672 0
3 793 0
-3 -793 0
91 -800 0
-91 800 0
92 -801 0
-92 801 0
93 -803 0
-93 803 0
94 -806 0
-94 806 0
101 -808 0
-101 808 0
117 -810 0
-117 810 0
240 -811 0
-240 811 0
425 -812 0
-425 812 0
426 -813 0
-426 813 0
427 -814 0
-427 814 0
428 -815 0
-428 815 0
435 -816 0
-435 816 0
451 -817 0
-451 817 0
574 -811 0
-574 811 0
-91 -425 2358 0
91 -2358 0
425 -2358 0
91 -1255 0
-91 1255 0
-92 -426 2359 0
92 -2359 0
426 -2359 0
92 -1269 0
-92 1269 0
-93 -427 2360 0
93 -2360 0
427 -2360 0
93 -1260 0
-93 1260 0
-94 -428 2361 0
94 -2361 0
428 -2361 0
94 -1277 0
-94 1277 0
-101 -435 2368 0
101 -2368 0
435 -2368 0
101 -1355 0
-101 1355 0
-117 -451 2384 0
117 -2384 0
451 -2384 0
117 -1240 0
-117 1240 0
-240 -574 2507 0
240 -2507 0
574 -2507 0
240 -921 0
-240 921 0
-1 0
-2 0
3 0
4 0
5 0
6 0
7 0
8 0
9 0
10 0
11 0
12 0
13 0
14 0
15 0
16 0
17 0
18 0
19 0
20 0
21 0
22 0
23 0
24 0
25 0
26 0
27 0
28 0
29 0
30 0
31 0
32 0
33 0
34 0
35 0
36 0
37 0
38 0
39 0
40 0
41 0
42 0
43 0
44 0
45 0
46 0
47 0
48 0
49 0
50 0
51 0
52 0
53 0
54 0
55 0
56 0
57 0
58 0
59 0
60 0
61 0
62 0
63 0
64 0
65 0
66 0
67 0
68 0
69 0
70 0
71 0
72 0
73 0
74 0
75 0
76 0
77 0
78 0
79 0
80 0
81 0
82 0
83 0
84 0
85 0
86 0
87 0
88 0
89 0
90 0
95 0
96 0
97 0
98 0
99 0
100 0
102 0
103 0
104 0
105 0
106 0
107 0
108 0
109 0
110 0
111 0
112 0
113 0
114 0
115 0
116 0
118 0
119 0
120 0
121 0
122 0
123 0
124 0
125 0
126 0
127 0
128 0
129 0
130 0
131 0
132 0
133 0
134 0
135 0
136 0
137 0
138 0
139 0
140 0
141 0
142 0
143 0
144 0
145 0
146 0
147 0
148 0
149 0
150 0
151 0
152 0
153 0
154 0
155 0
156 0
157 0
158 0
159 0
160 0
161 0
162 0
163 0
164 0
165 0
166 0
167 0
168 0
169 0
170 0
171 0
172 0
173 0
174 0
175 0
176 0
177 0
178 0
179 0
180 0
181 0
182 0
183 0
184 0
185 0
-186 0
187 0
188 0
189 0
190 0
191 0
192 0
193 0
194 0
195 0
196 0
197 0
198 0
199 0
200 0
201 0
202 0
203 0
204 0
205 0
206 0
207 0
208 0
209 0
210 0
211 0
212 0
213 0
214 0
215 0
216 0
217 0
218 0
219 0
220 0
221 0
222 0
223 0
224 0
225 0
226 0
227 0
228 0
229 0
230 0
231 0
232 0
233 0
234 0
235 0
236 0
237 0
238 0
239 0
-240 0
241 0
242 0
243 0
244 0
245 0
246 0
247 0
248 0
-249 0
250 0
251 0
252 0
253 0
254 0
255 0
256 0
257 0
258 0
259 0
260 0
261 0
262 0
263 0
264 0
265 0
266 0
267 0
268 0
269 0
270 0
271 0
272 0
273 0
274 0
275 0
276 0
-277 0
278 0
279 0
280 0
281 0
282 0
283 0
284 0
285 0
286 0
287 0
288 0
289 0
290 0
291 0
292 0
293 0
294 0
295 0
296 0
297 0
298 0
299 0
300 0
301 0
302 0
303 0
304 0
305 0
306 0
307 0
308 0
309 0
310 0
311 0
312 0
313 0
314 0
315 0
316 0
317 0
318 0
319 0
320 0
321 0
322 0
323 0
324 0
325 0
326 0
327 0
328 0
329 0
330 0
331 0
332 0
333 0
334 0
335 0
336 0
337 0
-338 0
-339 0
-340 0
-341 0
-342 0
-343 0
-344 0
-345 0
-346 0
-347 0
-348 0
-349 0
-350 0
-351 0
-352 0
-353 0
-354 0
-355 0
-356 0
-357 0
-358 0
-359 0
-360 0
-361 0
-362 0
-363 0
-364 0
-365 0
-366 0
-367 0
-368 0
-369 0
-370 0
-371 0
-372 0
-373 0
-374 0
-375 0
-376 0
-377 0
-378 0
-379 0
-380 0
-381 0
-382 0
-383 0
-384 0
-385 0
-386 0
-387 0
-388 0
-389 0
-390 0
-391 0
-392 0
-393 0
-394 0
-395 0
-396 0
-397 0
-398 0
-399 0
-400 0
-401 0
-402 0
-403 0
-404 0
-405 0
-406 0
-407 0
-408 0
-409 0
-410 0
-411 0
-412 0
-413 0
-414 0
-415 0
-416 0
-417 0
-418 0
-419 0
-420 0
-421 0
-422 0
-423 0
-424 0
-429 0
-430 0
-431 0
-432 0
-433 0
-434 0
-436 0
-437 0
-438 0
-439 0
-440 0
-441 0
-442 0
-443 0
-444 0
-445 0
-446 0
-447 0
-448 0
-449 0
-450 0
-452 0
-453 0
-454 0
-455 0
-456 0
-457 0
-458 0
-459 0
-460 0
-461 0
-462 0
-463 0
-464 0
-465 0
-466 0
-467 0
-468 0
-469 0
-470 0
-471 0
-472 0
-473 0
-474 0
-475 0
-476 0
-477 0
-478 0
-479 0
-480 0
-481 0
-482 0
-483 0
-484 0
-485 0
-486 0
-487 0
-488 0
-489 0
-490 0
-491 0
-492 0
-493 0
-494 0
-495 0
-496 0
-497 0
-498 0
-499 0
-500 0
-501 0
-502 0
-503 0
-504 0
-505 0
-506 0
-507 0
-508 0
-509 0
-510 0
-511 0
-512 0
-513 0
-514 0
-515 0
-516 0
-517 0
-518 0
-519 0
520 0
-521 0
-522 0
-523 0
-524 0
-525 0
-526 0
-527 0
-528 0
-529 0
-530 0
-531 0
-532 0
-533 0
-534 0
-535 0
-536 0
-537 0
-538 0
-539 0
-540 0
-541 0
-542 0
-543 0
-544 0
-545 0
-546 0
-547 0
-548 0
-549 0
-550 0
-551 0
-552 0
-553 0
-554 0
-555 0
-556 0
-557 0
-558 0
-559 0
-560 0
-561 0
-562 0
-563 0
-564 0
-565 0
-566 0
-567 0
-568 0
-569 0
-570 0
-571 0
-572 0
-573 0
-574 0
-575 0
-576 0
-577 0
-578 0
-579 0
-580 0
-581 0
-582 0
583 0
-584 0
-585 0
-586 0
-587 0
-588 0
-589 0
-590 0
-591 0
-592 0
-593 0
-594 0
-595 0
-596 0
-597 0
-598 0
-599 0
-600 0
-601 0
-602 0
-603 0
-604 0
-605 0
-606 0
-607 0
-608 0
-609 0
-610 0
611 0
-612 0
-613 0
-614 0
-615 0
-616 0
-617 0
-618 0
-619 0
-620 0
-621 0
-622 0
-623 0
-624 0
-625 0
-626 0
-627 0
-628 0
-629 0
-630 0
-631 0
-632 0
-633 0
-634 0
-635 0
-636 0
-637 0
-638 0
-639 0
-640 0
-641 0
-642 0
-643 0
-644 0
-645 0
-646 0
-647 0
-648 0
-649 0
-650 0
-651 0
-652 0
-653 0
-654 0
-655 0
-656 0
-657 0
-658 0
-659 0
-660 0
-661 0
-662 0
-663 0
-664 0
-665 0
-666 0
-667 0
-668 0
-669 0
-670 0
-671 0
672 0
673 0
674 0
-675 0
679 0
-680 0
-684 0
688 0
691 0
-692 0
695 0
697 0
730 0
754 0
762 0
770 0
-793 0
794 0
795 0
796 0
797 0
798 0
799 0
-811 0
818 0
819 0
820 0
821 0
822 0
823 0
824 0
825 0
826 0
827 0
828 0
829 0
830 0
831 0
832 0
833 0
834 0
835 0
836 0
837 0
838 0
839 0
840 0
841 0
842 0
843 0
844 0
845 0
846 0
847 0
848 0
849 0
850 0
851 0
852 0
853 0
854 0
855 0
856 0
857 0
858 0
859 0
860 0
861 0
862 0
863 0
864 0
-865 0
866 0
867 0
868 0
869 0
870 0
871 0
872 0
873 0
874 0
875 0
876 0
877 0
878 0
879 0
880 0
881 0
882 0
883 0
884 0
885 0
886 0
887 0
888 0
889 0
890 0
891 0
892 0
-893 0
894 0
895 0
896 0
897 0
898 0
899 0
900 0
901 0
902 0
903 0
904 0
905 0
906 0
907 0
908 0
909 0
910 0
911 0
912 0
913 0
914 0
915 0
916 0
917 0
918 0
919 0
920 0
-921 0
922 0
923 0
924 0
925 0
926 0
927 0
928 0
929 0
930 0
931 0
932 0
933 0
934 0
935 0
936 0
937 0
938 0
939 0
940 0
941 0
942 0
943 0
944 0
945 0
946 0
947 0
948 0
949 0
950 0
951 0
952 0
953 0
954 0
955 0
956 0
957 0
958 0
959 0
960 0
961 0
962 0
963 0
964 0
965 0
966 0
967 0
968 0
969 0
970 0
971 0
972 0
973 0
974 0
975 0
976 0
977 0
978 0
979 0
980 0
981 0
982 0
983 0
984 0
985 0
986 0
987 0
988 0
989 0
990 0
991 0
992 0
993 0
994 0
995 0
996 0
997 0
998 0
999 0
1000 0
1001 0
1002 0
1003 0
1004 0
1005 0
1006 0
1007 0
1008 0
1009 0
1010 0
1011 0
1012 0
1013 0
1014 0
1015 0
1016 0
1017 0
1018 0
1019 0
1020 0
1021 0
1052 0
1081 0
1110 0
1144 0
1168 0
1169 0
1170 0
1171 0
1172 0
1173 0
1174 0
1175 0
1176 0
1177 0
1178 0
1179 0
1180 0
1181 0
1182 0
1183 0
1184 0
1185 0
1186 0
1187 0
1188 0
1189 0
1190 0
1191 0
1192 0
1193 0
1194 0
1195 0
1196 0
1197 0
1198 0
1199 0
1200 0
1201 0
1202 0
1203 0
1204 0
1205 0
1206 0
1207 0
1208 0
1209 0
1210 0
1211 0
1212 0
1213 0
1214 0
1215 0
1216 0
1217 0
1218 0
1219 0
1220 0
1221 0
1222 0
1223 0
1224 0
1225 0
1226 0
1227 0
1228 0
1229 0
1230 0
1231 0
1232 0
1233 0
1234 0
1235 0
1236 0
1237 0
1238 0
1239 0
1241 0
1242 0
1243 0
1244 0
1245 0
1246 0
1247 0
1248 0
1249 0
1250 0
1251 0
1252 0
1253 0
1254 0
1256 0
1257 0
1258 0
1259 0
1261 0
1262 0
1263 0
1264 0
1265 0
1266 0
1267 0
1268 0
1270 0
1271 0
1272 0
1273 0
1274 0
1275 0
1276 0
1278 0
1279 0
1280 0
1281 0
-1350 0
1351 0
1352 0
1353 0
1354 0
1356 0
1357 0
1358 0
1359 0
1360 0
1361 0
1362 0
1363 0
1364 0
1365 0
1468 0
1500 0
2270 0
-2271 0
-2272 0
-2273 0
-2274 0
-2275 0
-2276 0
-2277 0
-2278 0
-2279 0
-2280 0
-2281 0
-2282 0
-2283 0
-2284 0
-2285 0
-2286 0
-2287 0
-2288 0
-2289 0
-2290 0
-2291 0
-2292 0
-2293 0
-2294 0
-2295 0
-2296 0
-2297 0
-2298 0
-2299 0
-2300 0
-2301 0
-2302 0
-2303 0
-2304 0
-2305 0
-2306 0
-2307 0
-2308 0
-2309 0
-2310 0
-2311 0
-2312 0
-2313 0
-2314 0
-2315 0
-2316 0
-2317 0
-2318 0
-2319 0
-2320 0
-2321 0
-2322 0
-2323 0
-2324 0
-2325 0
-2326 0
-2327 0
-2328 0
-2329 0
-2330 0
-2331 0
-2332 0
-2333 0
-2334 0
-2335 0
-2336 0
-2337 0
-2338 0
-2339 0
-2340 0
-2341 0
-2342 0
-2343 0
-2344 0
-2345 0
-2346 0
-2347 0
-2348 0
-2349 0
-2350 0
-2351 0
-2352 0
-2353 0
-2354 0
-2355 0
-2356 0
-2357 0
-2362 0
-2363 0
-2364 0
-2365 0
-2366 0
-2367 0
-2369 0
-2370 0
-2371 0
-2372 0
-2373 0
-2374 0
-2375 0
-2376 0
-2377 0
-2378 0
-2379 0
-2380 0
-2381 0
-2382 0
-2383 0
-2385 0
-2386 0
-2387 0
-2388 0
-2389 0
-2390 0
-2391 0
-2392 0
-2393 0
-2394 0
-2395 0
-2396 0
-2397 0
-2398 0
-2399 0
-2400 0
-2401 0
-2402 0
-2403 0
-2404 0
-2405 0
-2406 0
-2407 0
-2408 0
-2409 0
-2410 0
-2411 0
-2412 0
-2413 0
-2414 0
-2415 0
-2416 0
-2417 0
-2418 0
-2419 0
-2420 0
-2421 0
-2422 0
-2423 0
-2424 0
-2425 0
-2426 0
-2427 0
-2428 0
-2429 0
-2430 0
-2431 0
-2432 0
-2433 0
-2434 0
-2435 0
-2436 0
-2437 0
-2438 0
-2439 0
-2440 0
-2441 0
-2442 0
-2443 0
-2444 0
-2445 0
-2446 0
-2447 0
-2448 0
-2449 0
-2450 0
-2451 0
-2452 0
-2453 0
-2454 0
-2455 0
-2456 0
-2457 0
-2458 0
-2459 0
-2460 0
-2461 0
-2462 0
-2463 0
-2464 0
-2465 0
-2466 0
-2467 0
-2468 0
-2469 0
-2470 0
-2471 0
-2472 0
-2473 0
-2474 0
-2475 0
-2476 0
-2477 0
-2478 0
-2479 0
-2480 0
-2481 0
-2482 0
-2483 0
-2484 0
-2485 0
-2486 0
-2487 0
-2488 0
-2489 0
-2490 0
-2491 0
-2492 0
-2493 0
-2494 0
-2495 0
-2496 0
-2497 0
-2498 0
-2499 0
-2500 0
-2501 0
-2502 0
-2503 0
-2504 0
-2505 0
-2506 0
-2507 0
-2508 0
-2509 0
-2510 0
-2511 0
-2512 0
-2513 0
-2514 0
-2515 0
-2516 0
-2517 0
-2518 0
-2519 0
-2520 0
-2521 0
-2522 0
-2523 0
-2524 0
-2525 0
-2526 0
-2527 0
-2528 0
-2529 0
-2530 0
-2531 0
-2532 0
-2533 0
-2534 0
-2535 0
-2536 0
-2537 0
-2538 0
-2539 0
-2540 0
-2541 0
-2542 0
-2543 0
-2544 0
-2545 0
-2546 0
-2547 0
-2548 0
-2549 0
-2550 0
-2551 0
-2552 0
-2553 0
-2554 0
-2555 0
-2556 0
-2557 0
-2558 0
-2559 0
-2560 0
-2561 0
-2562 0
-2563 0
-2564 0
-2565 0
-2566 0
-2567 0
-2568 0
-2569 0
-2570 0
-2571 0
-2572 0
-2573 0
-2574 0
-2575 0
-2576 0
-2577 0
-2578 0
-2579 0
-2580 0
-2581 0
-2582 0
-2583 0
-2584 0
-2585 0
-2586 0
-2587 0
-2588 0
-2589 0
-2590 0
-2591 0
-2592 0
-2593 0
-2594 0
-2595 0
-2596 0
-2597 0
-2598 0
-2599 0
-2600 0
-2601 0
-2602 0
-2603 0
-2604 0
-1822 0
-1823 0
-1824 0
-1825 0
-1826 0
-1827 0
-1828 0
-1829 0
-1830 0
-1831 0
-1832 0
-1833 0
-1834 0
-1835 0
-1836 0
-1837 0
-1838 0
-1839 0
-1840 0
-1841 0
-1842 0
-1843 0
-1844 0
-1845 0
-2013 0
-2014 0
-2015 0
-2016 0
-2017 0
-2018 0
-2019 0
-2020 0
-2021 0
-2022 0
-2023 0
-2024 0
-2025 0
-2026 0
-2027 0
-2028 0
-2029 0
-2030 0
-2031 0
-2032 0
-2033 0
-2034 0
-2035 0
-2036 0
-2037 0
-2038 0
-2039 0
-2040 0
-2041 0
-2042 0
-1770 0
-2043 0
-2044 0
-1893 0
-2008 0
-2009 0
-2010 0
-2011 0
-2012 0
-1748 0
-1749 0
-1750 0
-2045 0
-1751 0
-2046 0
-1752 0
-1753 0
-1754 0
-2047 0
-1755 0
-2048 0
-1756 0
-1757 0
-1758 0
-1759 0
-1760 0
-1761 0
-1762 0
-2049 0
-1763 0
-1764 0
-1765 0
-2050 0
-2051 0
-1766 0
-1767 0
-2052 0
-2053 0
-1768 0
-1769 0
-1846 0
-1847 0
-1848 0
-1849 0
-1850 0
-2054 0
-1851 0
-1852 0
-1853 0
-1854 0
-1771 0
-1855 0
-2055 0
-2056 0
-1856 0
-1857 0
-1858 0
-1859 0
-2057 0
-2058 0
-1860 0
-1861 0
-1862 0
-1863 0
-1864 0
-1865 0
-1866 0
-1867 0
-1868 0
-1869 0
-2059 0
-2060 0
-1870 0
-1871 0
-1872 0
-2061 0
-2062 0
-1873 0
-1874 0
-1875 0
-1876 0
-1877 0
-1878 0
-1879 0
-1880 0
-2063 0
-1881 0
-1882 0
-1883 0
-1884 0
-1885 0
-1886 0
-2064 0
-1887 0
-2065 0
-1888 0
-2066 0
-1889 0
-2067 0
-2218 0
-2219 0
-2220 0
-2221 0
-2222 0
-2223 0
-1772 0
-2224 0
-2068 0
-2069 0
-2225 0
-2226 0
-2070 0
-2227 0
-2228 0
-2229 0
-2230 0
-2231 0
-2232 0
-2233 0
-2234 0
-2235 0
-2236 0
-2237 0
-2071 0
-2238 0
-2239 0
-2240 0
-2241 0
-2242 0
-2243 0
-2072 0
-2244 0
-2073 0
-2245 0
-2074 0
-2246 0
-2075 0
-2247 0
-2248 0
-2249 0
-2250 0
-2251 0
-2252 0
-2253 0
-2254 0
-2255 0
-2256 0
-2257 0
-2258 0
-2259 0
-2260 0
-2261 0
-2262 0
-2263 0
-1890 0
-2264 0
-2265 0
-2266 0
-2267 0
-2268 0
-2269 0
-2092 0
-2093 0
-2094 0
-2095 0
-2096 0
-2097 0
-2098 0
-2099 0
-2100 0
-2101 0
-2102 0
-2103 0
-2104 0
-2105 0
-2106 0
-2107 0
-2108 0
-2109 0
-2110 0
-2111 0
-2112 0
-2113 0
-2114 0
-2115 0
-2116 0
-2117 0
-2118 0
-2119 0
-2120 0
-2121 0
-2122 0
-2123 0
-2124 0
-2125 0
-2126 0
-2127 0
-2128 0
-2129 0
-2130 0
-2131 0
-2132 0
-2133 0
-2134 0
-2135 0
-2136 0
-2137 0
-2138 0
-2139 0
-2140 0
-2141 0
-2142 0
-2143 0
-2144 0
-2145 0
-2146 0
-2147 0
-2148 0
-2149 0
-2150 0
-2151 0
-2152 0
-2153 0
-2154 0
-2155 0
-2156 0
-1891 0
-2157 0
-2158 0
-2159 0
-2160 0
-2161 0
-2162 0
-2163 0
-2164 0
-2165 0
-2166 0
-2167 0
-2168 0
-2169 0
-2170 0
-2171 0
-2172 0
-2173 0
-2174 0
-2175 0
-2176 0
-2177 0
-2178 0
-2179 0
-2180 0
-2181 0
-2182 0
-2183 0
-2184 0
-2185 0
-2186 0
-2187 0
-2188 0
-2189 0
-2190 0
-2191 0
-2192 0
-2193 0
-2194 0
-2195 0
-1892 0
-2196 0
-2197 0
-2198 0
-2199 0
-2200 0
-2201 0
-2202 0
-2203 0
-2204 0
-2205 0
-2206 0
-2207 0
-2208 0
-2209 0
-2210 0
-2211 0
-2212 0
-2213 0
-2214 0
-2215 0
-2216 0
-2217 0
-1773 0
-1774 0
-1775 0
-1776 0
-1777 0
-1778 0
-1779 0
-1780 0
-1781 0
-1782 0
-1783 0
-1784 0
-1785 0
-1786 0
-1787 0
-1788 0
-1789 0
-1790 0
-1791 0
-1792 0
-1793 0
-1794 0
-1795 0
-1796 0
-1797 0
-1798 0
-1799 0
-1800 0
-1801 0
-1802 0
-1803 0
-1804 0
-1805 0
-1806 0
-1807 0
-1808 0
-1809 0
-1810 0
-1811 0
-1812 0
-1813 0
-1814 0
-1815 0
-1816 0
-1817 0
-1818 0
-1819 0
-1820 0
-1821 0

